# Solution for model GasLib-40
# Objective value = 5.3264674884694088e+01
loadshed[innode_1] 0
loadshed[innode_2] 0
loadshed[innode_3] 0
loadshed[innode_4] 0
loadshed[innode_5] 0
loadshed[innode_6] 0
loadshed[innode_7] 0
loadshed[innode_8] 0
loadshed[source_1] -1.7491894762439641e-01
loadshed[source_2] 1.7705123434499470e-01
loadshed[source_3] 3.3479339671427244e-01
loadshed[sink_1] 3.9134399747909421e-01
loadshed[sink_2] 0
loadshed[sink_3] 0
loadshed[sink_4] 0
loadshed[sink_5] 0
loadshed[sink_6] 0
loadshed[sink_7] 0
loadshed[sink_8] 0
loadshed[sink_9] 0
loadshed[sink_10] 0
loadshed[sink_11] 0
loadshed[sink_12] 1
loadshed[sink_13] 0
loadshed[sink_14] 0
loadshed[sink_15] 0
loadshed[sink_16] 0
loadshed[sink_17] 0
loadshed[sink_18] 0
loadshed[sink_19] 0
loadshed[sink_20] 0
loadshed[sink_21] 1
loadshed[sink_22] 0
loadshed[sink_23] 0
loadshed[sink_24] 8.6560427572513032e-01
loadshed[sink_25] 0
loadshed[sink_26] 0
loadshed[sink_27] 0
loadshed[sink_28] 0
loadshed[sink_29] 0
flow[source_1,sink_3] 1.8574326279631515e+02
flow[innode_1,sink_16] 1.6354166666666970e+01
flow[innode_6,sink_13] 9.3164699736146659e+00
flow[sink_13,sink_14] -7.0376966930520020e+00
flow[sink_14,sink_10] -2.3391863359718627e+01
flow[sink_25,sink_26] 1.1221570854472665e+02
flow[sink_26,sink_9] 0
flow[sink_9,sink_18] -1.6354166666669244e+01
flow[sink_26,sink_4] 9.5861541878059981e+01
flow[sink_4,sink_20] -1.4443447879510760e+01
flow[sink_18,sink_6] -3.2708333333335915e+01
flow[sink_25,innode_8] -1.5303492946297879e+02
flow[sink_6,sink_7] -7.5370728374563214e+01
flow[sink_6,sink_22] 2.6308228374560649e+01
flow[sink_7,sink_24] 2.1979300740785961e+00
flow[sink_22,sink_1] 9.9540617078939810e+00
flow[sink_24,sink_21] 0
flow[sink_21,sink_12] 0
flow[sink_7,sink_5] -9.3922825115308470e+01
flow[sink_5,sink_17] -1.1027699178197514e+02
flow[sink_17,sink_4] -9.3950823090904080e+01
flow[sink_17,sink_8] -3.2680335357737732e+01
flow[sink_3,sink_23] 16.3541666666697
flow[sink_8,sink_20] -4.9034502024404404e+01
flow[sink_25,sink_20] 7.9832116570581832e+01
flow[sink_25,sink_15] -6.4683532292611261e+01
flow[sink_15,sink_29] 0
flow[sink_29,sink_28] 1.6354166666667879e+01
flow[sink_29,sink_2] 97.3918656259446
flow[sink_2,sink_15] 8.1037698959277932e+01
flow[sink_29,innode_7] -1.3010019895927914e+02
flow[innode_4,sink_19] 4.0183003418894671e+01
flow[sink_19,innode_3] 0
flow[innode_4,innode_5] 6.4979693274158024e+01
flow[sink_27,innode_5] -6.4979693274158024e+01
flow[sink_27,sink_19] 4.8625526607491359e+01
flow[sink_10,sink_11] 3.2708333333333641e+01
flow[sink_10,innode_2] -7.2454363359719309e+01
flow[sink_10,innode_3] 0
flow[innode_6,sink_25] -9.3164699736146659e+00
flow[sink_11,innode_1] 1.6354166666666970e+01
flow[sink_19,innode_2] 7.2454363359719309e+01
flow[source_3,innode_4] 1.0516269669305269e+02
flow[source_2,innode_7] 1.3010019895927914e+02
flow[sink_3,innode_8] 1.5303492946297879e+02
pressure[innode_1] 7.5404120487138243e+01
pressure[innode_2] 7.9385334144624309e+01
pressure[innode_3] 7.5555821794741789e+01
pressure[innode_4] 81.01325
pressure[innode_5] 80.9685535405762
pressure[innode_6] 7.4488185087744810e+01
pressure[innode_7] 8.1013249999999985e+01
pressure[innode_8] 80.3923812289702
pressure[source_1] 81.01325
pressure[source_2] 8.1013249999999985e+01
pressure[source_3] 81.01325
pressure[sink_1] 1.0132500000000002e+00
pressure[sink_2] 7.5066533475091049e+01
pressure[sink_3] 80.3923812289702
pressure[sink_4] 5.4396814100448225e+01
pressure[sink_5] 4.2591484652410955e+01
pressure[sink_6] 2.4950557205738866e+00
pressure[sink_7] 3.5297161645314596e+00
pressure[sink_8] 5.2039437389647830e+01
pressure[sink_9] 1.0299033412676488e+00
pressure[sink_10] 7.5555821794741789e+01
pressure[sink_11] 7.5404120487138243e+01
pressure[sink_12] 1.01325
pressure[sink_13] 7.4436824945707031e+01
pressure[sink_14] 7.4449419503418454e+01
pressure[sink_15] 7.4801963248410175e+01
pressure[sink_16] 7.4382470652320563e+01
pressure[sink_17] 5.0806323435176878e+01
pressure[sink_18] 1.6216458350674032e+00
pressure[sink_19] 7.9385334144624309e+01
pressure[sink_20] 5.5456452595256451e+01
pressure[sink_21] 1.01325
pressure[sink_22] 1.6607194737908810e+00
pressure[sink_23] 8.0227663217310408e+01
pressure[sink_24] 1.01325
pressure[sink_25] 7.4488185087744810e+01
pressure[sink_26] 66.5848986355708
pressure[sink_27] 80.4293421559635
pressure[sink_28] 7.7238297071165960e+01
pressure[sink_29] 7.7533579344783135e+01
interdiction[source_1,sink_3] 0
interdiction[innode_1,sink_16] 0
interdiction[innode_6,sink_13] 0
interdiction[sink_13,sink_14] 0
interdiction[sink_14,sink_10] 0
interdiction[sink_25,sink_26] 0
interdiction[sink_26,sink_9] 1
interdiction[sink_9,sink_18] 0
interdiction[sink_26,sink_4] 0
interdiction[sink_4,sink_20] 0
interdiction[sink_18,sink_6] 0
interdiction[sink_25,innode_8] 0
interdiction[sink_6,sink_7] 0
interdiction[sink_6,sink_22] 0
interdiction[sink_7,sink_24] 0
interdiction[sink_22,sink_1] 0
interdiction[sink_24,sink_21] 0
interdiction[sink_21,sink_12] 0
interdiction[sink_7,sink_5] 0
interdiction[sink_5,sink_17] 0
interdiction[sink_17,sink_4] 0
interdiction[sink_17,sink_8] 0
interdiction[sink_3,sink_23] 0
interdiction[sink_8,sink_20] 0
interdiction[sink_25,sink_20] 0
interdiction[sink_25,sink_15] 0
interdiction[sink_15,sink_29] 1
interdiction[sink_29,sink_28] 0
interdiction[sink_29,sink_2] 0
interdiction[sink_2,sink_15] 0
interdiction[sink_29,innode_7] 0
interdiction[innode_4,sink_19] 0
interdiction[sink_19,innode_3] 1
interdiction[innode_4,innode_5] 0
interdiction[sink_27,innode_5] 0
interdiction[sink_27,sink_19] 0
interdiction[sink_10,sink_11] 0
interdiction[sink_10,innode_2] 0
interdiction[sink_10,innode_3] 0
interdiction[innode_6,sink_25] 0
interdiction[sink_11,innode_1] 0
interdiction[sink_19,innode_2] 0
interdiction[source_3,innode_4] 0
interdiction[source_2,innode_7] 0
interdiction[sink_3,innode_8] 0
WCcheckFlow[source_1,sink_3] 39
WCcheckFlow[innode_1,sink_16] 1
WCcheckFlow[innode_6,sink_13] 13
WCcheckFlow[sink_13,sink_14] 12
WCcheckFlow[sink_14,sink_10] 11
WCcheckFlow[sink_25,sink_26] 15
WCcheckFlow[sink_26,sink_9] 0
WCcheckFlow[sink_9,sink_18] -1
WCcheckFlow[sink_26,sink_4] 14
WCcheckFlow[sink_4,sink_20] 1
WCcheckFlow[sink_18,sink_6] -2
WCcheckFlow[sink_25,innode_8] -36
WCcheckFlow[sink_6,sink_7] -5
WCcheckFlow[sink_6,sink_22] 2
WCcheckFlow[sink_7,sink_24] 3
WCcheckFlow[sink_22,sink_1] 1
WCcheckFlow[sink_24,sink_21] 2
WCcheckFlow[sink_21,sink_12] 1
WCcheckFlow[sink_7,sink_5] -9
WCcheckFlow[sink_5,sink_17] -10
WCcheckFlow[sink_17,sink_4] -12
WCcheckFlow[sink_17,sink_8] 1
WCcheckFlow[sink_3,sink_23] 1
WCcheckFlow[sink_8,sink_20] 0
WCcheckFlow[sink_25,sink_20] 0
WCcheckFlow[sink_25,sink_15] 6
WCcheckFlow[sink_15,sink_29] 0
WCcheckFlow[sink_29,sink_28] 1
WCcheckFlow[sink_29,sink_2] -4
WCcheckFlow[sink_2,sink_15] -5
WCcheckFlow[sink_29,innode_7] 2
WCcheckFlow[innode_4,sink_19] -4
WCcheckFlow[sink_19,innode_3] 0
WCcheckFlow[innode_4,innode_5] 2
WCcheckFlow[sink_27,innode_5] -1
WCcheckFlow[sink_27,sink_19] 0
WCcheckFlow[sink_10,sink_11] 3
WCcheckFlow[sink_10,innode_2] 6
WCcheckFlow[sink_10,innode_3] 1
WCcheckFlow[innode_6,sink_25] -14
WCcheckFlow[sink_11,innode_1] 2
WCcheckFlow[sink_19,innode_2] -5
WCcheckFlow[source_3,innode_4] -1
WCcheckFlow[source_2,innode_7] -1
WCcheckFlow[sink_3,innode_8] 37
